37
120
83	2
78	2
77	1
76	2
74	1
73	1
72	2
68	1
67	1
66	1
65	1
63	1
61	1
60	3
59	1
58	1
54	1
52	2
51	1
50	1
47	1
44	1
43	1
42	2
37	2
36	1
35	2
34	1
28	1
27	2
25	1
22	1
21	1
19	2
17	2
15	1
14	1
